# Pair Coeffs

pair_coeff	1 1    0.06600    3.50000  # ct,ct
pair_coeff	2 2    0.03000    2.50000  # hc,hc

# Bond Coeffs

bond_coeff	1  268.00000    1.52900  # ct,ct
bond_coeff	2  340.00000    1.09000  # ct,hc

# Angle Coeffs

angle_coeff	1   58.35000  112.70000  # ct,ct,ct
angle_coeff	2   37.50000  110.70000  # ct,ct,hc
angle_coeff	3   33.00000  107.80000  # hc,ct,hc

# Dihedral Coeffs

dihedral_coeff	1    3.56500    5.39300   -9.42000   -2.77600    8.47200  # ct,ct,ct,ct
dihedral_coeff	2    0.15000   -0.45000    0.00000    0.60000    0.00000  # ct,ct,ct,hc
dihedral_coeff	3    0.15000   -0.45000    0.00000    0.60000    0.00000  # hc,ct,ct,hc

# Pair Coeffs

pair_coeff	1 1    0.06600    3.50000  # ct,ct
pair_coeff	2 2    0.03000    2.50000  # hc,hc

# Bond Coeffs

bond_coeff	1  268.00000    1.52900  # ct,ct
bond_coeff	2  340.00000    1.09000  # ct,hc

# Angle Coeffs

angle_coeff	1   58.35000  112.70000  # ct,ct,ct
angle_coeff	2   37.50000  110.70000  # ct,ct,hc
angle_coeff	3   33.00000  107.80000  # hc,ct,hc

# Dihedral Coeffs

dihedral_coeff	1    3.56500    5.39300   -9.42000   -2.77600    8.47200  # ct,ct,ct,ct
dihedral_coeff	2    0.15000   -0.45000    0.00000    0.60000    0.00000  # ct,ct,ct,hc
dihedral_coeff	3    0.15000   -0.45000    0.00000    0.60000    0.00000  # hc,ct,ct,hc

# Pair Coeffs

pair_coeff	1 1    0.06600    3.50000  # ct,ct
pair_coeff	2 2    0.03000    2.50000  # hc,hc

# Bond Coeffs

bond_coeff	1  268.00000    1.52900  # ct,ct
bond_coeff	2  340.00000    1.09000  # ct,hc

# Angle Coeffs

angle_coeff	1   58.35000  112.70000  # ct,ct,ct
angle_coeff	2   37.50000  110.70000  # ct,ct,hc
angle_coeff	3   33.00000  107.80000  # hc,ct,hc

# Dihedral Coeffs

dihedral_coeff	1    3.56500    5.39300   -9.42000   -2.77600    8.47200  # ct,ct,ct,ct
dihedral_coeff	2    0.15000   -0.45000    0.00000    0.60000    0.00000  # ct,ct,ct,hc
dihedral_coeff	3    0.15000   -0.45000    0.00000    0.60000    0.00000  # hc,ct,ct,hc

# Pair Coeffs

pair_coeff	1 1    0.06600    3.50000  # ct,ct
pair_coeff	2 2    0.03000    2.50000  # hc,hc

# Bond Coeffs

bond_coeff	1  268.00000    1.52900  # ct,ct
bond_coeff	2  340.00000    1.09000  # ct,hc

# Angle Coeffs

angle_coeff	1   58.35000  112.70000  # ct,ct,ct
angle_coeff	2   37.50000  110.70000  # ct,ct,hc
angle_coeff	3   33.00000  107.80000  # hc,ct,hc

# Dihedral Coeffs

dihedral_coeff	1    3.56500    5.39300   -9.42000   -2.77600    8.47200  # ct,ct,ct,ct
dihedral_coeff	2    0.15000   -0.45000    0.00000    0.60000    0.00000  # ct,ct,ct,hc
dihedral_coeff	3    0.15000   -0.45000    0.00000    0.60000    0.00000  # hc,ct,ct,hc

# Pair Coeffs

pair_coeff	1 1    0.06600    3.50000  # ct,ct
pair_coeff	2 2    0.03000    2.50000  # hc,hc

# Bond Coeffs

bond_coeff	1  268.00000    1.52900  # ct,ct
bond_coeff	2  340.00000    1.09000  # ct,hc

# Angle Coeffs

angle_coeff	1   58.35000  112.70000  # ct,ct,ct
angle_coeff	2   37.50000  110.70000  # ct,ct,hc
angle_coeff	3   33.00000  107.80000  # hc,ct,hc

# Dihedral Coeffs

dihedral_coeff	1    3.56500    5.39300   -9.42000   -2.77600    8.47200  # ct,ct,ct,ct
dihedral_coeff	2    0.15000   -0.45000    0.00000    0.60000    0.00000  # ct,ct,ct,hc
dihedral_coeff	3    0.15000   -0.45000    0.00000    0.60000    0.00000  # hc,ct,ct,hc

# Pair Coeffs

pair_coeff	1 1    0.06600    3.50000  # ct,ct
pair_coeff	2 2    0.03000    2.50000  # hc,hc

# Bond Coeffs

bond_coeff	1  268.00000    1.52900  # ct,ct
bond_coeff	2  340.00000    1.09000  # ct,hc

# Angle Coeffs

angle_coeff	1   58.35000  112.70000  # ct,ct,ct
angle_coeff	2   37.50000  110.70000  # ct,ct,hc
angle_coeff	3   33.00000  107.80000  # hc,ct,hc

# Dihedral Coeffs

dihedral_coeff	1    3.56500    5.39300   -9.42000   -2.77600    8.47200  # ct,ct,ct,ct
dihedral_coeff	2    0.15000   -0.45000    0.00000    0.60000    0.00000  # ct,ct,ct,hc
dihedral_coeff	3    0.15000   -0.45000    0.00000    0.60000    0.00000  # hc,ct,ct,hc

# Pair Coeffs

pair_coeff	1 1    0.06600    3.50000  # ct,ct
pair_coeff	2 2    0.03000    2.50000  # hc,hc

# Bond Coeffs

bond_coeff	1  268.00000    1.52900  # ct,ct
bond_coeff	2  340.00000    1.09000  # ct,hc

# Angle Coeffs

angle_coeff	1   58.35000  112.70000  # ct,ct,ct
angle_coeff	2   37.50000  110.70000  # ct,ct,hc
angle_coeff	3   33.00000  107.80000  # hc,ct,hc

# Dihedral Coeffs

dihedral_coeff	1    3.56500    5.39300   -9.42000   -2.77600    8.47200  # ct,ct,ct,ct
dihedral_coeff	2    0.15000   -0.45000    0.00000    0.60000    0.00000  # ct,ct,ct,hc
dihedral_coeff	3    0.15000   -0.45000    0.00000    0.60000    0.00000  # hc,ct,ct,hc

# Pair Coeffs

pair_coeff	1 1    0.06600    3.50000  # ct,ct
pair_coeff	2 2    0.03000    2.50000  # hc,hc

# Bond Coeffs

bond_coeff	1  268.00000    1.52900  # ct,ct
bond_coeff	2  340.00000    1.09000  # ct,hc

# Angle Coeffs

angle_coeff	1   58.35000  112.70000  # ct,ct,ct
angle_coeff	2   37.50000  110.70000  # ct,ct,hc
angle_coeff	3   33.00000  107.80000  # hc,ct,hc

# Dihedral Coeffs

dihedral_coeff	1    3.56500    5.39300   -9.42000   -2.77600    8.47200  # ct,ct,ct,ct
dihedral_coeff	2    0.15000   -0.45000    0.00000    0.60000    0.00000  # ct,ct,ct,hc
dihedral_coeff	3    0.15000   -0.45000    0.00000    0.60000    0.00000  # hc,ct,ct,hc

# Pair Coeffs

pair_coeff	1 1    0.06600    3.50000  # ct,ct
pair_coeff	2 2    0.03000    2.50000  # hc,hc

# Bond Coeffs

bond_coeff	1  268.00000    1.52900  # ct,ct
bond_coeff	2  340.00000    1.09000  # ct,hc

# Angle Coeffs

angle_coeff	1   58.35000  112.70000  # ct,ct,ct
angle_coeff	2   37.50000  110.70000  # ct,ct,hc
angle_coeff	3   33.00000  107.80000  # hc,ct,hc

# Dihedral Coeffs

dihedral_coeff	1    3.56500    5.39300   -9.42000   -2.77600    8.47200  # ct,ct,ct,ct
dihedral_coeff	2    0.15000   -0.45000    0.00000    0.60000    0.00000  # ct,ct,ct,hc
dihedral_coeff	3    0.15000   -0.45000    0.00000    0.60000    0.00000  # hc,ct,ct,hc

# Pair Coeffs

pair_coeff	1 1    0.06600    3.50000  # ct,ct
pair_coeff	2 2    0.03000    2.50000  # hc,hc

# Bond Coeffs

bond_coeff	1  268.00000    1.52900  # ct,ct
bond_coeff	2  340.00000    1.09000  # ct,hc

# Angle Coeffs

angle_coeff	1   58.35000  112.70000  # ct,ct,ct
angle_coeff	2   37.50000  110.70000  # ct,ct,hc
angle_coeff	3   33.00000  107.80000  # hc,ct,hc

# Dihedral Coeffs

dihedral_coeff	1    3.56500    5.39300   -9.42000   -2.77600    8.47200  # ct,ct,ct,ct
dihedral_coeff	2    0.15000   -0.45000    0.00000    0.60000    0.00000  # ct,ct,ct,hc
dihedral_coeff	3    0.15000   -0.45000    0.00000    0.60000    0.00000  # hc,ct,ct,hc

# Pair Coeffs

pair_coeff	1 1    0.06600    3.50000  # ct,ct
pair_coeff	2 2    0.03000    2.50000  # hc,hc

# Bond Coeffs

bond_coeff	1  268.00000    1.52900  # ct,ct
bond_coeff	2  340.00000    1.09000  # ct,hc

# Angle Coeffs

angle_coeff	1   58.35000  112.70000  # ct,ct,ct
angle_coeff	2   37.50000  110.70000  # ct,ct,hc
angle_coeff	3   33.00000  107.80000  # hc,ct,hc

# Dihedral Coeffs

dihedral_coeff	1    3.56500    5.39300   -9.42000   -2.77600    8.47200  # ct,ct,ct,ct
dihedral_coeff	2    0.15000   -0.45000    0.00000    0.60000    0.00000  # ct,ct,ct,hc
dihedral_coeff	3    0.15000   -0.45000    0.00000    0.60000    0.00000  # hc,ct,ct,hc

# Pair Coeffs

pair_coeff	1 1    0.06600    3.50000  # ct,ct
pair_coeff	2 2    0.03000    2.50000  # hc,hc

# Bond Coeffs

bond_coeff	1  268.00000    1.52900  # ct,ct
bond_coeff	2  340.00000    1.09000  # ct,hc

# Angle Coeffs

angle_coeff	1   58.35000  112.70000  # ct,ct,ct
angle_coeff	2   37.50000  110.70000  # ct,ct,hc
angle_coeff	3   33.00000  107.80000  # hc,ct,hc

# Dihedral Coeffs

dihedral_coeff	1    3.56500    5.39300   -9.42000   -2.77600    8.47200  # ct,ct,ct,ct
dihedral_coeff	2    0.15000   -0.45000    0.00000    0.60000    0.00000  # ct,ct,ct,hc
dihedral_coeff	3    0.15000   -0.45000    0.00000    0.60000    0.00000  # hc,ct,ct,hc

