
  ### LAMMPS commands for initialization
  ### (These can be overridden later.)


write_once("In Init") {
  atom_style full
}

write_once("Data Masses") {
  @atom:ct 12.01100
  @atom:hc 1.00790
}

write("Data Atoms") {
  $atom:ct_1 $mol:m1 @atom:ct -0.1200 25.2697030395 0.5768934803 24.2692298379
  $atom:hc_1 $mol:m1 @atom:hc 0.0600 24.2320761030 0.2871338304 24.1271685790
  $atom:hc_2 $mol:m1 @atom:hc 0.0600 25.2881492722 1.3864521281 23.5884554285
  $atom:ct_2 $mol:m1 @atom:ct -0.1200 26.2886842439 -0.5280642462 23.9499420448
  $atom:hc_3 $mol:m1 @atom:hc 0.0600 26.9245996897 -0.7759211292 24.8040901063
  $atom:hc_4 $mol:m1 @atom:hc 0.0600 25.6813534126 -1.4284874340 23.8298350454
  $atom:ct_3 $mol:m1 @atom:ct -0.1200 26.9446993373 -0.4792394999 22.5819867163
  $atom:hc_5 $mol:m1 @atom:hc 0.0600 26.1557060823 -0.8507283491 21.8169305942
  $atom:hc_6 $mol:m1 @atom:hc 0.0600 27.2846936552 0.4725187867 22.2698890138
  $atom:ct_4 $mol:m1 @atom:ct -0.0600 28.2250048290 -1.3916189623 22.4832291741
  $atom:hc_7 $mol:m1 @atom:hc 0.0600 29.0301748744 -0.8090271168 23.0070909660
  $atom:ct_5 $mol:m1 @atom:ct -0.1800 28.0970811071 -2.7661230610 23.1714684449
  $atom:hc_8 $mol:m1 @atom:hc 0.0600 29.0368281922 -3.2976390634 23.2252171003
  $atom:hc_9 $mol:m1 @atom:hc 0.0600 27.6608228021 -2.8628905986 24.1982704417
  $atom:hc_10 $mol:m1 @atom:hc 0.0600 27.4916030931 -3.4290083576 22.5459953078
  $atom:ct_6 $mol:m1 @atom:ct -0.1200 28.7492491305 -1.4506175962 21.0015963907
  $atom:hc_11 $mol:m1 @atom:hc 0.0600 28.1707994716 -2.0710606880 20.3981707745
  $atom:hc_12 $mol:m1 @atom:hc 0.0600 28.6177692420 -0.4686812957 20.5509367718
  $atom:ct_7 $mol:m1 @atom:ct -0.1200 30.2828132816 -1.7324976905 20.8919409744
  $atom:hc_13 $mol:m1 @atom:hc 0.0600 30.5860753499 -2.1695289681 21.8431494873
  $atom:hc_14 $mol:m1 @atom:hc 0.0600 30.9210306206 -0.8390006210 20.9021664621
  $atom:ct_8 $mol:m1 @atom:ct -0.1200 30.6612051536 -2.8404162855 19.8825068784
  $atom:hc_15 $mol:m1 @atom:hc 0.0600 29.9801820033 -3.7289217454 20.1095029228
  $atom:hc_16 $mol:m1 @atom:hc 0.0600 30.2940149882 -2.6095328856 18.9341257664
  $atom:ct_9 $mol:m1 @atom:ct -0.0600 32.0955133136 -3.1969028984 20.0042182542
  $atom:hc_17 $mol:m1 @atom:hc 0.0600 32.6977733802 -2.7192159142 20.7595184708
  $atom:ct_10 $mol:m1 @atom:ct -0.1800 32.8257589033 -2.6467011391 18.7630671730
  $atom:hc_18 $mol:m1 @atom:hc 0.0600 33.5821830425 -3.2651054895 18.3504230786
  $atom:hc_19 $mol:m1 @atom:hc 0.0600 32.1979511237 -2.4548105857 17.8924846341
  $atom:hc_20 $mol:m1 @atom:hc 0.0600 33.3027851448 -1.7458867115 19.0245893813
  $atom:ct_11 $mol:m1 @atom:ct -0.1200 32.3540403919 -4.6837079090 20.1224417292
  $atom:hc_21 $mol:m1 @atom:hc 0.0600 32.7351078165 -5.0913511456 19.1580184926
  $atom:hc_22 $mol:m1 @atom:hc 0.0600 31.3544143377 -5.2396652334 20.3284032594
  $atom:ct_12 $mol:m1 @atom:ct -0.1200 33.1661129356 -5.0722888089 21.3676770682
  $atom:hc_23 $mol:m1 @atom:hc 0.0600 32.7511359582 -4.6667166582 22.2633991347
  $atom:hc_24 $mol:m1 @atom:hc 0.0600 34.1015310438 -4.4757530438 21.2511717433
  $atom:ct_13 $mol:m1 @atom:ct -0.1200 33.3530786124 -6.5762048215 21.4909151664
  $atom:hc_25 $mol:m1 @atom:hc 0.0600 32.6837972556 -7.0244710818 22.2325621346
  $atom:hc_26 $mol:m1 @atom:hc 0.0600 33.1411385833 -7.0146267061 20.5333289021
  $atom:ct_14 $mol:m1 @atom:ct -0.0600 34.8225070232 -7.0472127635 21.9685622670
  $atom:hc_27 $mol:m1 @atom:hc 0.0600 34.7950484485 -7.0775506997 23.0865027431
  $atom:ct_15 $mol:m1 @atom:ct -0.1800 36.0086978044 -6.1519790368 21.6186141890
  $atom:hc_28 $mol:m1 @atom:hc 0.0600 36.2285703157 -5.3589280154 22.2976860140
  $atom:hc_29 $mol:m1 @atom:hc 0.0600 36.9507517257 -6.6582774504 21.5722487785
  $atom:hc_30 $mol:m1 @atom:hc 0.0600 35.9953450746 -5.7151815876 20.6224505585
  $atom:ct_16 $mol:m1 @atom:ct -0.1200 34.9484446929 -8.5230459089 21.6605063937
  $atom:hc_31 $mol:m1 @atom:hc 0.0600 34.0733476900 -9.0380862136 22.0532165279
  $atom:hc_32 $mol:m1 @atom:hc 0.0600 34.8743833854 -8.8026250712 20.6302674818
  $atom:ct_17 $mol:m1 @atom:ct -0.1200 36.2785605314 -9.2475558215 22.1131932412
  $atom:hc_33 $mol:m1 @atom:hc 0.0600 37.0984508088 -8.9201656772 21.4898983127
  $atom:hc_34 $mol:m1 @atom:hc 0.0600 36.5857875480 -8.9712999505 23.1270431385
  $atom:ct_18 $mol:m1 @atom:ct -0.1200 36.1605717407 -10.7882295505 22.0162653138
  $atom:hc_35 $mol:m1 @atom:hc 0.0600 35.3874381558 -11.0027680590 21.3566474627
  $atom:hc_36 $mol:m1 @atom:hc 0.0600 35.8171239937 -11.0564020940 23.0017725456
  $atom:ct_19 $mol:m1 @atom:ct -0.0600 37.5546853510 -11.5048234355 21.6938672924
  $atom:hc_37 $mol:m1 @atom:hc 0.0600 38.3723394715 -10.9599855197 22.2322055010
  $atom:ct_20 $mol:m1 @atom:ct -0.1800 38.0354815988 -11.2434029467 20.2194613092
  $atom:hc_38 $mol:m1 @atom:hc 0.0600 37.8495534417 -10.2464826690 19.9238272725
  $atom:hc_39 $mol:m1 @atom:hc 0.0600 37.5964564576 -11.9247183026 19.5176855385
  $atom:hc_40 $mol:m1 @atom:hc 0.0600 39.0715382643 -11.3709425475 19.9920852319
  $atom:ct_21 $mol:m1 @atom:ct -0.1200 37.5212202197 -13.0465560158 22.1421811798
  $atom:hc_41 $mol:m1 @atom:hc 0.0600 36.6131573341 -13.3760096937 21.7215073210
  $atom:hc_42 $mol:m1 @atom:hc 0.0600 37.4299372474 -13.0474765586 23.1913272757
  $atom:ct_22 $mol:m1 @atom:ct -0.1200 38.6629350333 -13.8744182119 21.5530618349
  $atom:hc_43 $mol:m1 @atom:hc 0.0600 39.6051092242 -13.4694012270 21.8486240070
  $atom:hc_44 $mol:m1 @atom:hc 0.0600 38.6113817438 -13.8993289424 20.4330498019
  $atom:ct_23 $mol:m1 @atom:ct -0.1200 38.4044924522 -15.3298617224 22.0034963326
  $atom:hc_45 $mol:m1 @atom:hc 0.0600 37.5262958578 -15.7393569877 21.5134202074
  $atom:hc_46 $mol:m1 @atom:hc 0.0600 38.0567430133 -15.2853258079 23.0942146955
  $atom:ct_24 $mol:m1 @atom:ct -0.0600 39.5652567759 -16.3698231172 21.9110446810
  $atom:hc_47 $mol:m1 @atom:hc 0.0600 40.3588986119 -15.9948316870 22.5417313207
  $atom:ct_25 $mol:m1 @atom:ct -0.1800 39.9818656744 -16.5616165443 20.4545507604
  $atom:hc_48 $mol:m1 @atom:hc 0.0600 40.7390668249 -17.2782459027 20.3352948814
  $atom:hc_49 $mol:m1 @atom:hc 0.0600 39.1855409407 -17.0363228491 19.8092284072
  $atom:hc_50 $mol:m1 @atom:hc 0.0600 40.3616932935 -15.7378858291 19.9491611209
  $atom:ct_26 $mol:m1 @atom:ct -0.1200 38.9357927441 -17.6979864303 22.4881365391
  $atom:hc_51 $mol:m1 @atom:hc 0.0600 38.0258545566 -17.8556178830 22.0136344410
  $atom:hc_52 $mol:m1 @atom:hc 0.0600 38.8071765762 -17.5105513451 23.5674791736
  $atom:ct_27 $mol:m1 @atom:ct -0.1200 39.7144437803 -19.0337994765 22.4055425433
  $atom:hc_53 $mol:m1 @atom:hc 0.0600 40.5341007250 -18.9402724648 23.0845363657
  $atom:hc_54 $mol:m1 @atom:hc 0.0600 40.1423038441 -19.2181696518 21.3967010635
  $atom:ct_28 $mol:m1 @atom:ct -0.1200 38.8516835387 -20.2224066983 22.6098682841
  $atom:hc_55 $mol:m1 @atom:hc 0.0600 38.1216061833 -19.9962926806 23.3704316377
  $atom:hc_56 $mol:m1 @atom:hc 0.0600 38.2027306166 -20.3719968191 21.7527653125
  $atom:ct_29 $mol:m1 @atom:ct -0.0600 39.6990678979 -21.5268647561 23.0410123506
  $atom:hc_57 $mol:m1 @atom:hc 0.0600 39.3640966707 -22.2517983070 22.2842118524
  $atom:ct_30 $mol:m1 @atom:ct -0.1800 41.2661568531 -21.4712414270 22.7455230088
  $atom:hc_58 $mol:m1 @atom:hc 0.0600 41.5665976822 -21.1526748307 21.7423148264
  $atom:hc_59 $mol:m1 @atom:hc 0.0600 41.8087915246 -22.4136833608 22.8229433089
  $atom:hc_60 $mol:m1 @atom:hc 0.0600 41.8184068194 -20.8018708478 23.4379642327
  $atom:ct_31 $mol:m1 @atom:ct -0.1200 39.1840893531 -22.1652598117 24.3556353661
  $atom:hc_61 $mol:m1 @atom:hc 0.0600 38.0816320627 -22.1742460759 24.4501811079
  $atom:hc_62 $mol:m1 @atom:hc 0.0600 39.6100997183 -21.6186556539 25.1998888922
  $atom:ct_32 $mol:m1 @atom:ct -0.1200 39.6963897587 -23.6394737730 24.5519178138
  $atom:hc_63 $mol:m1 @atom:hc 0.0600 39.1837843795 -24.2847908971 23.8296191704
  $atom:hc_64 $mol:m1 @atom:hc 0.0600 40.7784697045 -23.6641058645 24.3185889752
  $atom:ct_33 $mol:m1 @atom:ct -0.1200 39.4548960049 -23.9815858446 26.0278412526
  $atom:hc_65 $mol:m1 @atom:hc 0.0600 40.1566743838 -23.5683628410 26.7011107643
  $atom:hc_66 $mol:m1 @atom:hc 0.0600 38.6018283614 -23.4240259097 26.3473168772
  $atom:ct_34 $mol:m1 @atom:ct -0.0600 39.3065892740 -25.5172295880 26.2505764699
  $atom:hc_67 $mol:m1 @atom:hc 0.0600 39.1336586365 -26.0809916284 25.2670220802
  $atom:ct_35 $mol:m1 @atom:ct -0.1800 40.6393159700 -26.0586747241 26.7769240286
  $atom:hc_68 $mol:m1 @atom:hc 0.0600 40.9542825468 -26.9693045335 26.2410370744
  $atom:hc_69 $mol:m1 @atom:hc 0.0600 41.3746393810 -25.2619022012 26.5680883918
  $atom:hc_70 $mol:m1 @atom:hc 0.0600 40.7534687049 -26.2041650008 27.9074924239
  $atom:ct_36 $mol:m1 @atom:ct -0.1200 38.2547528105 -26.0087270109 27.2347806099
  $atom:hc_71 $mol:m1 @atom:hc 0.0600 38.5752603129 -27.0059080660 27.6922749387
  $atom:hc_72 $mol:m1 @atom:hc 0.0600 38.2163127073 -25.3838058202 28.0975146821
  $atom:ct_37 $mol:m1 @atom:ct -0.1200 36.8633230068 -26.2562412646 26.5990064178
  $atom:hc_73 $mol:m1 @atom:hc 0.0600 36.8699934288 -26.6763039469 25.5659515216
  $atom:hc_74 $mol:m1 @atom:hc 0.0600 36.2637647023 -25.3048811204 26.5121313829
  $atom:ct_38 $mol:m1 @atom:ct -0.1200 36.1474365919 -27.3207377112 27.3680485422
  $atom:hc_75 $mol:m1 @atom:hc 0.0600 36.0183136393 -26.8209112771 28.3620049372
  $atom:hc_76 $mol:m1 @atom:hc 0.0600 36.7947046890 -28.2332450217 27.5525852556
  $atom:ct_39 $mol:m1 @atom:ct -0.0600 34.7699091961 -27.9085455666 26.7795161727
  $atom:hc_77 $mol:m1 @atom:hc 0.0600 34.8375197881 -28.8759532042 26.1828773990
  $atom:ct_40 $mol:m1 @atom:ct -0.1800 34.1277228766 -26.8924256846 25.7649439367
  $atom:hc_78 $mol:m1 @atom:hc 0.0600 33.3870656028 -27.3170620125 25.1827967570
  $atom:hc_79 $mol:m1 @atom:hc 0.0600 34.8488803876 -26.3472919670 25.1739950342
  $atom:hc_80 $mol:m1 @atom:hc 0.0600 33.6148959913 -26.0658165240 26.3563117545
  $atom:ct_41 $mol:m1 @atom:ct -0.1200 33.8135395419 -28.1444457150 28.0506977468
  $atom:hc_81 $mol:m1 @atom:hc 0.0600 34.0466195534 -27.2828808640 28.7128031111
  $atom:hc_82 $mol:m1 @atom:hc 0.0600 34.0403960713 -29.0911546634 28.5777621083
  $atom:ct_42 $mol:m1 @atom:ct -0.1200 32.3235379128 -28.1340201462 27.8396376667
  $atom:hc_83 $mol:m1 @atom:hc 0.0600 31.9103621314 -27.5292591010 27.0438227465
  $atom:hc_84 $mol:m1 @atom:hc 0.0600 31.9596812804 -29.1144939536 27.5255281473
  $atom:ct_43 $mol:m1 @atom:ct -0.1200 31.5047249335 -27.7447766223 29.1215809225
  $atom:hc_85 $mol:m1 @atom:hc 0.0600 31.4553420781 -26.6705309335 29.2646029743
  $atom:hc_86 $mol:m1 @atom:hc 0.0600 32.1594353964 -28.1269028151 29.9014090312
  $atom:ct_44 $mol:m1 @atom:ct -0.0600 30.0678772854 -28.2461667611 29.2642934417
  $atom:hc_87 $mol:m1 @atom:hc 0.0600 30.0580082872 -29.4039866894 29.3659493956
  $atom:ct_45 $mol:m1 @atom:ct -0.1800 29.3588761317 -27.8280593054 27.9994944906
  $atom:hc_88 $mol:m1 @atom:hc 0.0600 28.3718579471 -28.2800168725 28.0823535480
  $atom:hc_89 $mol:m1 @atom:hc 0.0600 29.2231823909 -26.7299846281 27.9812707698
  $atom:hc_90 $mol:m1 @atom:hc 0.0600 29.8299165493 -28.1731416868 27.0337063080
  $atom:ct_46 $mol:m1 @atom:ct -0.1200 29.3314544985 -27.6934631003 30.6175796895
  $atom:hc_91 $mol:m1 @atom:hc 0.0600 30.1042691727 -27.1321930109 31.2132935440
  $atom:hc_92 $mol:m1 @atom:hc 0.0600 28.5874818292 -27.0325964868 30.2858598428
  $atom:ct_47 $mol:m1 @atom:ct -0.1200 28.5767369509 -28.6401538077 31.5074600893
  $atom:hc_93 $mol:m1 @atom:hc 0.0600 28.3521971460 -29.5380210071 30.8322098982
  $atom:hc_94 $mol:m1 @atom:hc 0.0600 29.3284044309 -28.8549367817 32.3249195379
  $atom:ct_48 $mol:m1 @atom:ct -0.1200 27.1908558981 -28.1142486038 31.8881107081
  $atom:hc_95 $mol:m1 @atom:hc 0.0600 26.9552299973 -27.1183637922 31.5212417154
  $atom:hc_96 $mol:m1 @atom:hc 0.0600 26.5631159730 -28.7355899699 31.2249118813
  $atom:ct_49 $mol:m1 @atom:ct -0.0600 26.8336636741 -28.2942645906 33.3834623528
  $atom:hc_97 $mol:m1 @atom:hc 0.0600 27.6423758150 -28.7374414206 34.0018538570
  $atom:ct_50 $mol:m1 @atom:ct -0.1800 26.6947979420 -26.8592377070 33.9350552894
  $atom:hc_98 $mol:m1 @atom:hc 0.0600 26.3700107002 -27.0959730058 35.0026142380
  $atom:hc_99 $mol:m1 @atom:hc 0.0600 27.6538550033 -26.3343856009 33.8353957846
  $atom:hc_100 $mol:m1 @atom:hc 0.0600 25.8464057181 -26.4119961820 33.4453869051
  $atom:ct_51 $mol:m1 @atom:ct -0.1200 25.4330494664 -29.0353578500 33.4784910071
  $atom:hc_101 $mol:m1 @atom:hc 0.0600 24.8051273662 -29.0003744938 32.5329289722
  $atom:hc_102 $mol:m1 @atom:hc 0.0600 24.7853110870 -28.6164233875 34.2810342746
  $atom:ct_52 $mol:m1 @atom:ct -0.1200 25.6043047631 -30.4595717241 34.0453413893
  $atom:hc_103 $mol:m1 @atom:hc 0.0600 26.5715639862 -30.7419047710 33.8075091859
  $atom:hc_104 $mol:m1 @atom:hc 0.0600 25.3648073282 -30.4361956797 35.1311274623
  $atom:ct_53 $mol:m1 @atom:ct -0.1200 24.6181092978 -31.4737318667 33.4363909949
  $atom:hc_105 $mol:m1 @atom:hc 0.0600 24.8676421975 -31.3905821356 32.3835104128
  $atom:hc_106 $mol:m1 @atom:hc 0.0600 23.5637716559 -31.1643158600 33.5460431931
  $atom:ct_54 $mol:m1 @atom:ct -0.0600 24.9142990533 -32.8880156097 33.9234928409
  $atom:hc_107 $mol:m1 @atom:hc 0.0600 24.3616899140 -33.2500827262 34.7727012081
  $atom:ct_55 $mol:m1 @atom:ct -0.1800 26.4621093806 -33.1551222738 34.2735035085
  $atom:hc_108 $mol:m1 @atom:hc 0.0600 27.2043512650 -32.8139115485 33.5437564841
  $atom:hc_109 $mol:m1 @atom:hc 0.0600 26.6767470411 -32.7494111413 35.2870054615
  $atom:hc_110 $mol:m1 @atom:hc 0.0600 26.6428184515 -34.2010698324 34.4145133109
  $atom:ct_56 $mol:m1 @atom:ct -0.1200 24.5752111454 -33.8904011916 32.7369959527
  $atom:hc_111 $mol:m1 @atom:hc 0.0600 24.8272829448 -33.5578504624 31.7620191803
  $atom:hc_112 $mol:m1 @atom:hc 0.0600 23.5117571936 -34.0128397756 32.6960354416
  $atom:ct_57 $mol:m1 @atom:ct -0.1200 25.0152790881 -35.3836226680 32.9116858077
  $atom:hc_113 $mol:m1 @atom:hc 0.0600 26.0872534819 -35.4235359025 32.7250193184
  $atom:hc_114 $mol:m1 @atom:hc 0.0600 24.6750667773 -35.7127042207 33.9202064163
  $atom:ct_58 $mol:m1 @atom:ct -0.1200 24.4417178759 -36.2968263048 31.8405785750
  $atom:hc_115 $mol:m1 @atom:hc 0.0600 23.4370502560 -36.5020032516 32.1230671603
  $atom:hc_116 $mol:m1 @atom:hc 0.0600 24.3650956866 -35.6593709497 30.9955658957
  $atom:ct_59 $mol:m1 @atom:ct -0.0600 25.1477459211 -37.7085592892 31.5730206844
  $atom:hc_117 $mol:m1 @atom:hc 0.0600 24.3598256242 -38.4804532383 31.4872442185
  $atom:ct_60 $mol:m1 @atom:ct -0.1800 25.9388608896 -38.1712481073 32.8764078070
  $atom:hc_118 $mol:m1 @atom:hc 0.0600 27.0129454380 -38.1869462880 32.7006424630
  $atom:hc_119 $mol:m1 @atom:hc 0.0600 25.8067964027 -37.6490081382 33.8149871271
  $atom:hc_120 $mol:m1 @atom:hc 0.0600 25.7839877272 -39.2033827843 33.0979202026
  $atom:ct_61 $mol:m1 @atom:ct -0.1200 26.0787503823 -37.6682398810 30.3346280626
  $atom:hc_121 $mol:m1 @atom:hc 0.0600 26.2916320010 -36.6581384476 30.1850176986
  $atom:hc_122 $mol:m1 @atom:hc 0.0600 27.0259635106 -38.1330904474 30.5663912015
  $atom:ct_62 $mol:m1 @atom:ct -0.1200 25.5007695296 -38.4938493043 29.0361998597
  $atom:hc_123 $mol:m1 @atom:hc 0.0600 24.9944581513 -37.7885104507 28.4176420758
  $atom:hc_124 $mol:m1 @atom:hc 0.0600 24.6465971124 -39.1299884764 29.3791937947
  $atom:ct_63 $mol:m1 @atom:ct -0.1200 26.5541200318 -39.3697353665 28.3219204109
  $atom:hc_125 $mol:m1 @atom:hc 0.0600 27.4349040339 -38.9751455259 27.8423039644
  $atom:hc_126 $mol:m1 @atom:hc 0.0600 26.9377997428 -39.9039540155 29.1378189988
  $atom:ct_64 $mol:m1 @atom:ct -0.0600 25.8459730634 -40.4431245208 27.4136496436
  $atom:hc_127 $mol:m1 @atom:hc 0.0600 24.8335569952 -40.6888709856 27.7988130482
  $atom:ct_65 $mol:m1 @atom:ct -0.1800 25.4938475982 -39.9078741317 26.0244192222
  $atom:hc_128 $mol:m1 @atom:hc 0.0600 24.4950243867 -39.8007528188 25.9144672633
  $atom:hc_129 $mol:m1 @atom:hc 0.0600 26.0247968465 -38.9334282752 25.9771822028
  $atom:hc_130 $mol:m1 @atom:hc 0.0600 25.9781791909 -40.5249321820 25.2202065856
  $atom:ct_66 $mol:m1 @atom:ct -0.1200 26.6326778554 -41.7139966458 27.1644269425
  $atom:hc_131 $mol:m1 @atom:hc 0.0600 27.5753471220 -41.5850252664 27.7303348051
  $atom:hc_132 $mol:m1 @atom:hc 0.0600 27.0586092581 -41.7931267863 26.1965646440
  $atom:ct_67 $mol:m1 @atom:ct -0.1200 25.9480268721 -42.9894735140 27.6964101635
  $atom:hc_133 $mol:m1 @atom:hc 0.0600 25.2099260267 -43.4772810244 27.0683578147
  $atom:hc_134 $mol:m1 @atom:hc 0.0600 25.3724162034 -42.5821189407 28.4541961410
  $atom:ct_68 $mol:m1 @atom:ct -0.1200 26.7662600084 -44.1152350766 28.3130398285
  $atom:hc_135 $mol:m1 @atom:hc 0.0600 27.4403887072 -43.5216567550 28.9055792379
  $atom:hc_136 $mol:m1 @atom:hc 0.0600 27.2590058192 -44.7495526553 27.5873983642
  $atom:ct_69 $mol:m1 @atom:ct -0.0600 26.1360063985 -45.0591931751 29.2962871599
  $atom:hc_137 $mol:m1 @atom:hc 0.0600 25.4982958039 -45.8518255116 28.8846440627
  $atom:ct_70 $mol:m1 @atom:ct -0.1800 25.0931945202 -44.3948368822 30.2059699209
  $atom:hc_138 $mol:m1 @atom:hc 0.0600 24.6832453901 -45.2396287779 30.7863202610
  $atom:hc_139 $mol:m1 @atom:hc 0.0600 24.2597465425 -44.0763845604 29.5387377550
  $atom:hc_140 $mol:m1 @atom:hc 0.0600 25.4036626719 -43.5604897718 30.7542431600
  $atom:ct_71 $mol:m1 @atom:ct -0.1200 27.2699243390 -45.7417525712 30.0930094400
  $atom:hc_141 $mol:m1 @atom:hc 0.0600 27.7133652909 -46.4525007166 29.3688087602
  $atom:hc_142 $mol:m1 @atom:hc 0.0600 28.0160777830 -44.9793800233 30.2533279922
  $atom:ct_72 $mol:m1 @atom:ct -0.1200 26.9969997572 -46.3475633567 31.4814538448
  $atom:hc_143 $mol:m1 @atom:hc 0.0600 26.2201809966 -45.7957188398 32.0671812891
  $atom:hc_144 $mol:m1 @atom:hc 0.0600 26.5170117538 -47.2766659956 31.1952894584
  $atom:ct_73 $mol:m1 @atom:ct -0.1200 28.1621661739 -46.5451013369 32.4292397968
  $atom:hc_145 $mol:m1 @atom:hc 0.0600 28.9333255147 -46.8550437662 31.7908501517
  $atom:hc_146 $mol:m1 @atom:hc 0.0600 28.4622020452 -45.6270490902 32.8760998829
  $atom:ct_74 $mol:m1 @atom:ct -0.0600 27.9315428139 -47.6555412439 33.5350515089
  $atom:hc_147 $mol:m1 @atom:hc 0.0600 27.1762647277 -47.2186550081 34.2025058681
  $atom:ct_75 $mol:m1 @atom:ct -0.1800 27.6707675001 -49.0220497989 32.8637777386
  $atom:hc_148 $mol:m1 @atom:hc 0.0600 27.6827586822 -49.9018820315 33.5851303740
  $atom:hc_149 $mol:m1 @atom:hc 0.0600 28.4212561831 -49.2882866863 32.0898037401
  $atom:hc_150 $mol:m1 @atom:hc 0.0600 26.7064984389 -49.0126629277 32.4475016277
  $atom:ct_76 $mol:m1 @atom:ct -0.1200 29.1961699641 -47.8546371421 34.4590938685
  $atom:hc_151 $mol:m1 @atom:hc 0.0600 29.7749890679 -48.8068663622 34.3139459896
  $atom:hc_152 $mol:m1 @atom:hc 0.0600 29.8582626897 -47.0102347949 34.3527980479
  $atom:ct_77 $mol:m1 @atom:ct -0.1200 28.8473282320 -47.7924520230 35.9763615409
  $atom:hc_153 $mol:m1 @atom:hc 0.0600 27.7487998559 -47.7208756701 36.1334887156
  $atom:hc_154 $mol:m1 @atom:hc 0.0600 29.2099583900 -46.8671513561 36.4149773348
  $atom:ct_78 $mol:m1 @atom:ct -0.1200 29.5826534368 -48.8167732381 36.9405866293
  $atom:hc_155 $mol:m1 @atom:hc 0.0600 30.2698965864 -49.4039852179 36.3707459919
  $atom:hc_156 $mol:m1 @atom:hc 0.0600 30.1778768489 -48.1932831762 37.5636097507
  $atom:ct_79 $mol:m1 @atom:ct -0.0600 28.6765411425 -49.6961131367 37.8513309604
  $atom:hc_157 $mol:m1 @atom:hc 0.0600 29.2766758268 -50.4732234350 38.2441169874
  $atom:ct_80 $mol:m1 @atom:ct -0.1800 27.4785952753 -50.3354055357 37.0669021215
  $atom:hc_158 $mol:m1 @atom:hc 0.0600 26.6645613029 -49.5782158543 36.9296608566
  $atom:hc_159 $mol:m1 @atom:hc 0.0600 27.1238464171 -51.2611363673 37.5957566589
  $atom:hc_160 $mol:m1 @atom:hc 0.0600 27.7316528267 -50.6061620371 36.0744737870
  $atom:ct_81 $mol:m1 @atom:ct -0.1200 28.3565722709 -48.9963219192 39.1985975418
  $atom:hc_161 $mol:m1 @atom:hc 0.0600 28.0236975114 -48.0058438125 39.0330323372
  $atom:hc_162 $mol:m1 @atom:hc 0.0600 29.2805206147 -48.8074191307 39.6779283375
  $atom:ct_82 $mol:m1 @atom:ct -0.1200 27.3160378964 -49.8085745893 40.1153884275
  $atom:hc_163 $mol:m1 @atom:hc 0.0600 26.2737470826 -49.5473363554 39.9289163321
  $atom:hc_164 $mol:m1 @atom:hc 0.0600 27.3712758517 -50.8413609190 39.8449722164
  $atom:ct_83 $mol:m1 @atom:ct -0.1200 27.5563290735 -49.6235579628 41.6206668359
  $atom:hc_165 $mol:m1 @atom:hc 0.0600 26.9750467834 -48.7937058185 41.9500723320
  $atom:hc_166 $mol:m1 @atom:hc 0.0600 28.5205607870 -49.2733210426 41.8643413749
  $atom:ct_84 $mol:m1 @atom:ct -0.0600 27.3493634829 -50.8603034337 42.5251613518
  $atom:hc_167 $mol:m1 @atom:hc 0.0600 26.2387245771 -51.0327976875 42.6366918740
  $atom:ct_85 $mol:m1 @atom:ct -0.1800 27.8927939535 -52.1813926082 41.9253156284
  $atom:hc_168 $mol:m1 @atom:hc 0.0600 27.9720849399 -53.0085409301 42.6302108288
  $atom:hc_169 $mol:m1 @atom:hc 0.0600 27.1485219623 -52.5746158060 41.2312054277
  $atom:hc_170 $mol:m1 @atom:hc 0.0600 28.8680587917 -52.2107214629 41.4070929277
  $atom:ct_86 $mol:m1 @atom:ct -0.1200 27.7908731222 -50.5060545138 44.0281709587
  $atom:hc_171 $mol:m1 @atom:hc 0.0600 27.4712631146 -49.4892561034 44.3008547317
  $atom:hc_172 $mol:m1 @atom:hc 0.0600 28.8844272981 -50.4811148636 44.0946009893
  $atom:ct_87 $mol:m1 @atom:ct -0.1200 27.1884421618 -51.3394983898 45.2245813024
  $atom:hc_173 $mol:m1 @atom:hc 0.0600 26.0123083580 -51.3165783344 45.3319786447
  $atom:hc_174 $mol:m1 @atom:hc 0.0600 27.5071794702 -52.3450206194 44.9473051269
  $atom:ct_88 $mol:m1 @atom:ct -0.1200 27.8018017903 -50.9160534276 46.5535393468
  $atom:hc_175 $mol:m1 @atom:hc 0.0600 27.1796662338 -50.1178026299 46.9739961602
  $atom:hc_176 $mol:m1 @atom:hc 0.0600 28.8001536901 -50.4940497979 46.4195675024
  $atom:ct_89 $mol:m1 @atom:ct -0.0600 27.9555661051 -52.0697308918 47.5251817069
  $atom:hc_177 $mol:m1 @atom:hc 0.0600 27.8786202541 -53.0458956172 46.9908849190
  $atom:ct_90 $mol:m1 @atom:ct -0.1800 26.8617654412 -52.1777582600 48.5986536241
  $atom:hc_178 $mol:m1 @atom:hc 0.0600 26.8868228954 -51.3494191573 49.2768648497
  $atom:hc_179 $mol:m1 @atom:hc 0.0600 25.8466888171 -52.0844629194 48.2425499368
  $atom:hc_180 $mol:m1 @atom:hc 0.0600 26.9374388435 -53.1762864240 49.0565073325
  $atom:ct_91 $mol:m1 @atom:ct -0.1200 29.3268924303 -51.9727963486 48.1451506462
  $atom:hc_181 $mol:m1 @atom:hc 0.0600 29.9868519982 -51.9692122822 47.2069399727
  $atom:hc_182 $mol:m1 @atom:hc 0.0600 29.5343653511 -50.9802562776 48.5980397345
  $atom:ct_92 $mol:m1 @atom:ct -0.1200 29.6549341006 -53.1873456705 49.1060109740
  $atom:hc_183 $mol:m1 @atom:hc 0.0600 29.3622496910 -52.9739533399 50.1770205861
  $atom:hc_184 $mol:m1 @atom:hc 0.0600 28.9566053857 -53.9859224992 48.8092373579
  $atom:ct_93 $mol:m1 @atom:ct -0.1200 31.0860191350 -53.6764686771 48.8867561093
  $atom:hc_185 $mol:m1 @atom:hc 0.0600 31.3219740907 -53.4394544787 47.8371620021
  $atom:hc_186 $mol:m1 @atom:hc 0.0600 31.8058467746 -53.0925447731 49.3792100337
  $atom:ct_94 $mol:m1 @atom:ct -0.0600 31.5382488452 -55.1264107829 49.0398723647
  $atom:hc_187 $mol:m1 @atom:hc 0.0600 31.9565308192 -55.1896670406 50.0175328719
  $atom:ct_95 $mol:m1 @atom:ct -0.1800 30.3383383617 -56.1088999830 49.1485364090
  $atom:hc_188 $mol:m1 @atom:hc 0.0600 29.6355320863 -56.0251006556 48.2668271977
  $atom:hc_189 $mol:m1 @atom:hc 0.0600 30.5658277734 -57.1365525390 49.2614956794
  $atom:hc_190 $mol:m1 @atom:hc 0.0600 29.7722924431 -56.0121842143 50.0083807985
  $atom:ct_96 $mol:m1 @atom:ct -0.1200 32.8088978255 -55.5039525042 48.1409348164
  $atom:hc_191 $mol:m1 @atom:hc 0.0600 33.3434316004 -54.6292803154 47.7701623466
  $atom:hc_192 $mol:m1 @atom:hc 0.0600 33.4846398235 -55.9945063313 48.8078859681
  $atom:ct_97 $mol:m1 @atom:ct -0.1200 32.6846399946 -56.4582435600 46.9305270502
  $atom:hc_193 $mol:m1 @atom:hc 0.0600 31.7926541375 -57.1010254162 47.0939331764
  $atom:hc_194 $mol:m1 @atom:hc 0.0600 32.3886197228 -55.7836838513 46.1176605671
  $atom:ct_98 $mol:m1 @atom:ct -0.1200 33.9263827369 -57.3348202741 46.7135837047
  $atom:hc_195 $mol:m1 @atom:hc 0.0600 33.5483855442 -58.3615932375 46.9727232398
  $atom:hc_196 $mol:m1 @atom:hc 0.0600 34.7448072153 -57.1488729449 47.4316609965
  $atom:ct_99 $mol:m1 @atom:ct -0.0600 34.4532273747 -57.3311746985 45.2862300835
  $atom:hc_197 $mol:m1 @atom:hc 0.0600 34.1804217057 -56.3871312637 44.8417397307
  $atom:ct_100 $mol:m1 @atom:ct -0.1800 33.9600035043 -58.4532861955 44.4035688511
  $atom:hc_198 $mol:m1 @atom:hc 0.0600 33.7025309721 -58.1435221086 43.4117339818
  $atom:hc_199 $mol:m1 @atom:hc 0.0600 33.1223909501 -59.1189904492 44.7965044322
  $atom:hc_200 $mol:m1 @atom:hc 0.0600 34.8210386885 -59.0412862584 44.0959489851
  $atom:ct_101 $mol:m1 @atom:ct -0.1800 25.4467255162 1.0089242858 25.7464077166
  $atom:hc_201 $mol:m1 @atom:hc 0.0600 26.5014393264 1.0708536162 25.9705828931
  $atom:hc_202 $mol:m1 @atom:hc 0.0600 24.9323894245 0.3689020942 26.4835797693
  $atom:hc_203 $mol:m1 @atom:hc 0.0600 25.0573898304 1.9684295898 25.9687297994
  $atom:ct_102 $mol:m1 @atom:ct -0.1800 35.9694836643 -57.3524967048 45.4223947465
  $atom:hc_204 $mol:m1 @atom:hc 0.0600 36.1859926466 -56.3413296111 46.0135254417
  $atom:hc_205 $mol:m1 @atom:hc 0.0600 36.5599540864 -58.0517967190 46.0515643892
  $atom:hc_206 $mol:m1 @atom:hc 0.0600 36.4375695082 -57.3715523718 44.4334766018
}

write("Data Bonds") {
  $bond:id1 @bond:type1 $atom:ct_1 $atom:ct_101
  $bond:id2 @bond:type1 $atom:ct_1 $atom:ct_2
  $bond:id3 @bond:type2 $atom:ct_1 $atom:hc_1
  $bond:id4 @bond:type2 $atom:ct_1 $atom:hc_2
  $bond:id5 @bond:type1 $atom:ct_2 $atom:ct_3
  $bond:id6 @bond:type2 $atom:ct_2 $atom:hc_3
  $bond:id7 @bond:type2 $atom:ct_2 $atom:hc_4
  $bond:id8 @bond:type1 $atom:ct_3 $atom:ct_4
  $bond:id9 @bond:type2 $atom:ct_3 $atom:hc_5
  $bond:id10 @bond:type2 $atom:ct_3 $atom:hc_6
  $bond:id11 @bond:type1 $atom:ct_4 $atom:ct_6
  $bond:id12 @bond:type1 $atom:ct_4 $atom:ct_5
  $bond:id13 @bond:type2 $atom:ct_4 $atom:hc_7
  $bond:id14 @bond:type2 $atom:ct_5 $atom:hc_8
  $bond:id15 @bond:type2 $atom:ct_5 $atom:hc_9
  $bond:id16 @bond:type2 $atom:ct_5 $atom:hc_10
  $bond:id17 @bond:type1 $atom:ct_6 $atom:ct_7
  $bond:id18 @bond:type2 $atom:ct_6 $atom:hc_11
  $bond:id19 @bond:type2 $atom:ct_6 $atom:hc_12
  $bond:id20 @bond:type1 $atom:ct_7 $atom:ct_8
  $bond:id21 @bond:type2 $atom:ct_7 $atom:hc_13
  $bond:id22 @bond:type2 $atom:ct_7 $atom:hc_14
  $bond:id23 @bond:type1 $atom:ct_8 $atom:ct_9
  $bond:id24 @bond:type2 $atom:ct_8 $atom:hc_15
  $bond:id25 @bond:type2 $atom:ct_8 $atom:hc_16
  $bond:id26 @bond:type1 $atom:ct_9 $atom:ct_11
  $bond:id27 @bond:type1 $atom:ct_9 $atom:ct_10
  $bond:id28 @bond:type2 $atom:ct_9 $atom:hc_17
  $bond:id29 @bond:type2 $atom:ct_10 $atom:hc_18
  $bond:id30 @bond:type2 $atom:ct_10 $atom:hc_19
  $bond:id31 @bond:type2 $atom:ct_10 $atom:hc_20
  $bond:id32 @bond:type1 $atom:ct_11 $atom:ct_12
  $bond:id33 @bond:type2 $atom:ct_11 $atom:hc_21
  $bond:id34 @bond:type2 $atom:ct_11 $atom:hc_22
  $bond:id35 @bond:type1 $atom:ct_12 $atom:ct_13
  $bond:id36 @bond:type2 $atom:ct_12 $atom:hc_23
  $bond:id37 @bond:type2 $atom:ct_12 $atom:hc_24
  $bond:id38 @bond:type1 $atom:ct_13 $atom:ct_14
  $bond:id39 @bond:type2 $atom:ct_13 $atom:hc_25
  $bond:id40 @bond:type2 $atom:ct_13 $atom:hc_26
  $bond:id41 @bond:type1 $atom:ct_14 $atom:ct_16
  $bond:id42 @bond:type1 $atom:ct_14 $atom:ct_15
  $bond:id43 @bond:type2 $atom:ct_14 $atom:hc_27
  $bond:id44 @bond:type2 $atom:ct_15 $atom:hc_28
  $bond:id45 @bond:type2 $atom:ct_15 $atom:hc_29
  $bond:id46 @bond:type2 $atom:ct_15 $atom:hc_30
  $bond:id47 @bond:type1 $atom:ct_16 $atom:ct_17
  $bond:id48 @bond:type2 $atom:ct_16 $atom:hc_31
  $bond:id49 @bond:type2 $atom:ct_16 $atom:hc_32
  $bond:id50 @bond:type1 $atom:ct_17 $atom:ct_18
  $bond:id51 @bond:type2 $atom:ct_17 $atom:hc_33
  $bond:id52 @bond:type2 $atom:ct_17 $atom:hc_34
  $bond:id53 @bond:type1 $atom:ct_18 $atom:ct_19
  $bond:id54 @bond:type2 $atom:ct_18 $atom:hc_35
  $bond:id55 @bond:type2 $atom:ct_18 $atom:hc_36
  $bond:id56 @bond:type1 $atom:ct_19 $atom:ct_21
  $bond:id57 @bond:type1 $atom:ct_19 $atom:ct_20
  $bond:id58 @bond:type2 $atom:ct_19 $atom:hc_37
  $bond:id59 @bond:type2 $atom:ct_20 $atom:hc_38
  $bond:id60 @bond:type2 $atom:ct_20 $atom:hc_39
  $bond:id61 @bond:type2 $atom:ct_20 $atom:hc_40
  $bond:id62 @bond:type1 $atom:ct_21 $atom:ct_22
  $bond:id63 @bond:type2 $atom:ct_21 $atom:hc_41
  $bond:id64 @bond:type2 $atom:ct_21 $atom:hc_42
  $bond:id65 @bond:type1 $atom:ct_22 $atom:ct_23
  $bond:id66 @bond:type2 $atom:ct_22 $atom:hc_43
  $bond:id67 @bond:type2 $atom:ct_22 $atom:hc_44
  $bond:id68 @bond:type1 $atom:ct_23 $atom:ct_24
  $bond:id69 @bond:type2 $atom:ct_23 $atom:hc_45
  $bond:id70 @bond:type2 $atom:ct_23 $atom:hc_46
  $bond:id71 @bond:type1 $atom:ct_24 $atom:ct_26
  $bond:id72 @bond:type1 $atom:ct_24 $atom:ct_25
  $bond:id73 @bond:type2 $atom:ct_24 $atom:hc_47
  $bond:id74 @bond:type2 $atom:ct_25 $atom:hc_48
  $bond:id75 @bond:type2 $atom:ct_25 $atom:hc_49
  $bond:id76 @bond:type2 $atom:ct_25 $atom:hc_50
  $bond:id77 @bond:type1 $atom:ct_26 $atom:ct_27
  $bond:id78 @bond:type2 $atom:ct_26 $atom:hc_51
  $bond:id79 @bond:type2 $atom:ct_26 $atom:hc_52
  $bond:id80 @bond:type1 $atom:ct_27 $atom:ct_28
  $bond:id81 @bond:type2 $atom:ct_27 $atom:hc_53
  $bond:id82 @bond:type2 $atom:ct_27 $atom:hc_54
  $bond:id83 @bond:type1 $atom:ct_28 $atom:ct_29
  $bond:id84 @bond:type2 $atom:ct_28 $atom:hc_55
  $bond:id85 @bond:type2 $atom:ct_28 $atom:hc_56
  $bond:id86 @bond:type1 $atom:ct_29 $atom:ct_31
  $bond:id87 @bond:type1 $atom:ct_29 $atom:ct_30
  $bond:id88 @bond:type2 $atom:ct_29 $atom:hc_57
  $bond:id89 @bond:type2 $atom:ct_30 $atom:hc_58
  $bond:id90 @bond:type2 $atom:ct_30 $atom:hc_59
  $bond:id91 @bond:type2 $atom:ct_30 $atom:hc_60
  $bond:id92 @bond:type1 $atom:ct_31 $atom:ct_32
  $bond:id93 @bond:type2 $atom:ct_31 $atom:hc_61
  $bond:id94 @bond:type2 $atom:ct_31 $atom:hc_62
  $bond:id95 @bond:type1 $atom:ct_32 $atom:ct_33
  $bond:id96 @bond:type2 $atom:ct_32 $atom:hc_63